
Gurobi 8.1.0 (mac64, Python) logging started Tue Oct 30 23:04:33 2018


Gurobi 8.1.0 (mac64, Python) logging started Tue Oct 30 23:12:35 2018

Academic license - for non-commercial use only

Gurobi 8.1.0 (mac64, Python) logging started Wed Oct 31 00:07:33 2018

Academic license - for non-commercial use only

Gurobi 8.1.0 (mac64, Python) logging started Wed Oct 31 00:10:40 2018

Academic license - for non-commercial use only

Gurobi 8.1.0 (mac64, Python) logging started Wed Oct 31 01:00:45 2018

Academic license - for non-commercial use only

Gurobi 8.1.0 (mac64, Python) logging started Wed Oct 31 01:07:51 2018

Academic license - for non-commercial use only

Gurobi 8.1.0 (mac64, Python) logging started Wed Oct 31 01:59:26 2018

Academic license - for non-commercial use only

Gurobi 8.1.0 (mac64, Python) logging started Sun Nov 11 15:36:24 2018

Academic license - for non-commercial use only

Gurobi 8.1.0 (mac64, Python) logging started Wed Nov 14 15:47:01 2018

Academic license - for non-commercial use only

Gurobi 8.1.0 (mac64, Python) logging started Wed Nov 14 16:09:43 2018

Academic license - for non-commercial use only

Gurobi 8.1.0 (mac64, Python) logging started Tue Nov 20 16:55:17 2018

Academic license - for non-commercial use only

Gurobi 8.1.0 (mac64, Python) logging started Tue Nov 27 16:19:37 2018

Academic license - for non-commercial use only

Gurobi 8.1.0 (mac64, Python) logging started Wed Nov 28 12:15:26 2018

Academic license - for non-commercial use only

Gurobi 8.1.0 (mac64, Python) logging started Wed Nov 28 12:51:37 2018

Academic license - for non-commercial use only

Gurobi 8.1.0 (mac64, Python) logging started Wed Nov 28 12:57:42 2018

Academic license - for non-commercial use only

Gurobi 8.1.0 (mac64, Python) logging started Wed Nov 28 17:43:06 2018

Academic license - for non-commercial use only

Gurobi 8.1.0 (mac64, Python) logging started Thu Nov 29 00:09:31 2018

Academic license - for non-commercial use only

Gurobi 8.1.0 (mac64, Python) logging started Sat Dec  1 13:40:03 2018

Academic license - for non-commercial use only

Gurobi 8.1.0 (mac64, Python) logging started Sat Dec  1 13:43:56 2018

Academic license - for non-commercial use only

Gurobi 8.1.0 (mac64, Python) logging started Sat Dec  1 14:12:46 2018

Academic license - for non-commercial use only

Gurobi 8.1.0 (mac64, Python) logging started Sat Dec  1 16:24:06 2018

Academic license - for non-commercial use only

Gurobi 8.1.0 (mac64, Python) logging started Sat Dec  1 18:25:15 2018

Academic license - for non-commercial use only

Gurobi 8.1.0 (mac64, Python) logging started Sat Dec  1 20:38:07 2018

Academic license - for non-commercial use only
